20
16	198	255	30	59
1	273	272	0	64
19	222	322	62	45
14	124	19	25	50
23	286	324	39	12
30	287	124	98	31
26	32	80	74	70
29	252	347	77	82
7	269	379	33	68
7	326	329	98	45
1	117	145	84	55
28	318	269	22	86
26	251	251	45	24
22	322	158	91	37
5	208	100	38	65
15	237	271	66	54
25	131	93	33	8
21	47	208	91	63
18	249	329	6	86
1	180	342	32	8
